p cnf 42 129
a 16 39 0
e 1 2 3 4 5 6 7 8 9 10 11 12 13 14 15 17 18 19 20 21 22 23 24 25 26 27 28 29 30 31 32 33 34 35 36 37 38 40 41 42 0
-1 2 -3 0
1 -2 -3 0
-1 -2 3 0
1 2 3 0
-6 -4 0
-6 5 0
4 -5 6 0
7 -8 -9 0
-7 8 -9 0
7 8 9 0
-7 -8 9 0
-2 -9 -10 0
2 9 -10 0
-2 9 10 0
2 -9 10 0
11 -10 0
11 -9 0
10 9 -11 0
13 11 0
13 -12 0
-11 12 -13 0
14 -1 0
14 2 0
1 -2 -14 0
-15 5 0
-15 -4 0
-5 4 15 0
16 15 0
16 4 0
-15 -4 -16 0
8 9 -17 0
-8 -9 -17 0
8 -9 17 0
-8 9 17 0
18 -8 0
18 -15 0
8 15 -18 0
-19 17 0
-19 18 0
-17 -18 19 0
19 -9 -20 0
-19 9 -20 0
19 9 20 0
-19 -9 20 0
16 20 -21 0
-16 -20 -21 0
16 -20 21 0
-16 20 21 0
-14 -21 -22 0
14 21 -22 0
-14 21 22 0
14 -21 22 0
-23 13 0
-23 22 0
-13 -22 23 0
24 6 0
24 23 0
-6 -23 -24 0
-25 8 0
-25 12 0
-8 -12 25 0
26 -2 0
26 25 0
2 -25 -26 0
27 -24 0
27 -26 0
24 26 -27 0
-3 27 -28 0
3 -27 -28 0
-3 -27 28 0
3 27 28 0
-17 7 -29 0
17 -7 -29 0
-17 -7 29 0
17 7 29 0
30 5 0
30 -29 0
-5 29 -30 0
-12 1 -31 0
12 -1 -31 0
-12 -1 31 0
12 1 31 0
-32 31 0
-32 -29 0
-31 29 32 0
-12 29 -33 0
12 -29 -33 0
-12 -29 33 0
12 29 33 0
-34 -31 0
-34 15 0
31 -15 34 0
33 34 -35 0
-33 -34 -35 0
33 -34 35 0
-33 34 35 0
-36 -32 0
-36 -35 0
32 35 36 0
-37 -30 0
-37 -36 0
30 36 37 0
-39 -8 0
-39 9 0
8 -9 39 0
-38 39 -40 0
38 -39 -40 0
-38 -39 40 0
38 39 40 0
37 40 -41 0
-37 -40 -41 0
37 -40 41 0
-37 40 41 0
42 28 0
42 -41 0
-28 41 -42 0
37 -40 -6 15 -25 9 -20 8 0
10 -33 34 -42 -38 -29 0
-14 41 -31 20 2 -5 0
17 31 28 20 38 -25 10 -21 0
-31 34 25 5 0
4 16 17 0
11 4 1 -21 -37 -29 -31 0
-20 -6 -15 28 38 0
-37 -35 -22 -30 -18 -33 0
-11 -30 42 9 -13 40 -17 0
-6 -28 34 -15 -14 0
20 -29 27 -30 16 -6 33 40 0
42 0
